[VALIDATOR STDOUT]
Checking plan: /home/jfan5/Safety-gen/runs/benchmark/optic/spanner_20260201_171241/spanner/optic_results/spanner-s3-n2-l5-s3001.plan
Plan executed successfully - checking goal
Plan valid
Final value: 10 

Successful plans:
Value: 10
 /home/jfan5/Safety-gen/runs/benchmark/optic/spanner_20260201_171241/spanner/optic_results/spanner-s3-n2-l5-s3001.plan 10
